n_res = 4;
rcap = [14, 13, 56, 32];
rtype = [1, 1, 2, 2];
n_tasks = 16;
modes = [ {1, 2}, {3, 4}, {5, 6}, {7, 8}, {9, 10}, {11, 12}, {13, 14}, {15, 16}, {17, 18}, {19, 20}, {21, 22}, {23, 24}, {25, 26}, {27, 28}, {29, 30}, {31, 32} ];
succ = [ {6, 9, 12}, {5, 6, 7}, {4, 5, 12}, {8, 10, 15}, {9, 11}, {8, 15}, {9, 11, 15}, {13}, {14, 16}, {14, 16}, {13}, {14}, {16}, {}, {}, {} ];
n_opt = 32;
dur = [3, 8, 2, 8, 7, 9, 6, 8, 2, 3, 1, 10, 1, 10, 4, 6, 3, 9, 6, 8, 6, 6, 1, 5, 8, 10, 1, 8, 4, 9, 3, 9];
rreq = [|  7,  5,  9,  6,  6,  3,  9,  8,  3,  2,  8,  5,  9,  7,  8,  4,  5,  2,  6,  6,  3,  7,  4,  4,  9,  7,  6,  6,  9,  9,  8,  8
        |  7,  6,  7,  5,  4,  2,  9,  6,  3,  2,  5,  2, 10,  7,  8,  7,  6,  3,  4,  1,  8,  5,  9,  7,  4,  3,  5,  3,  9,  8,  9,  8
        |  5,  4,  4,  2,  2,  0,  4,  0,  4,  3,  7,  6,  0,  5,  5,  0,  5,  2,  7,  0,  0,  2,  7,  4,  2,  0,  8,  0,  8,  8,  8,  0
        |  0,  0,  0,  0,  0,  6,  0,  4,  0,  0,  0,  0,  8,  0,  0,  8,  0,  0,  0,  6,  8,  0,  0,  0,  0,  9,  0,  8,  0,  0,  0,  7 |];
